NAME : n40w120.001.470.tour
COMMENT : Length = 470
COMMENT : Found by LKH [Keld Helsgaun] Tue May  2 05:47:16 2017
TYPE : TOUR
DIMENSION : 41
TOUR_SECTION
1
7
16
8
14
17
38
13
40
3
36
26
5
24
34
19
9
2
39
4
33
15
6
37
11
23
32
28
22
30
12
27
20
35
10
29
21
18
25
41
31
-1
EOF
